<number of tasks>
20


<number of equipment>
5


<cycle time>
1000


<investment costs>
1,6782
2,22112
3,5725
4,14946
5,16181


<task times>
1,-1,95,-1,155,146
2,164,88,83,-1,-1
3,146,96,142,-1,-1
4,-1,100,-1,176,172
5,-1,170,-1,161,152
6,91,88,181,-1,-1
7,-1,110,-1,175,170
8,225,155,219,-1,-1
9,221,146,217,-1,-1
10,194,96,219,-1,-1
11,-1,-1,-1,121,127
12,233,192,238,-1,-1
13,-1,-1,-1,166,147
14,213,102,200,-1,-1
15,-1,-1,-1,72,87
16,-1,111,-1,159,152
17,223,111,182,-1,-1
18,-1,112,-1,156,147
19,222,75,186,-1,-1
20,-1,118,-1,175,171


<precedence relations>
1,5
2,6
3,7
4,8
5,9
6,10
7,10
8,10
9,11
10,12
10,13
10,14
10,15
11,15
14,16
15,17
15,19
15,20
16,18


<task types>
1,2
2,3
3,3
4,2
5,2
6,3
7,2
8,3
9,3
10,3
11,1
12,3
13,1
14,3
15,1
16,2
17,3
18,2
19,3
20,2


<line depot>
1,0
2,0
3,3
4,4
5,0


<processing costs>
1,7200
2,14400
3,7200
4,14400
5,14400


<saving costs>
1,678
2,2211
3,572
4,1494
5,1618


<end>
